43
144
122
138
190
85
156
105
113
57
202
179
163
57
23
241
140
243
12
56
139
229
15
126
34
242
224
9
30
36
52
36
28
4
143
243
242
48
158
98
115
54
27
21
163
90
65
20
78
221
138
179
3
248
52
15
116
227
211
238
107
49
110
89
108
97
56
58
143
113
165
12
177
231
90
144
161
144
51
42
230
118
27
98
98
217
201
240
230
44
191
52
91
127
165
77
76
74
33
155
